NAME : P = NP
TYPE : TSP
DIMENSION : 23
EDGE_WEIGHT_TYPE : EUC_2D
NODE_COORD_SECTION
0 236 95
1 73 122
2 380 722
3 157 88
4 115 227
5 128 354
6 67 4
7 403 600
8 516 706
9 54 666
10 516 102
11 158 52
12 101 406
13 789 12
14 82 51
15 488 120
16 6 17
17 308 31
18 498 206
19 135 404
20 103 410
21 450 47
22 20 743